p cnf 155 1317
-1 -2 3 0
-4 -2 3 0
-5 -2 3 0
-6 -2 7 0
-8 -2 7 0
-9 -2 7 0
-10 -2 11 0
-12 -2 11 0
-13 -2 11 0
-14 -15 3 0
-16 -15 3 0
-17 -15 3 0
-18 -15 7 0
-19 -15 7 0
-20 -15 7 0
-21 -15 11 0
-22 -15 11 0
-23 -15 11 0
-24 -25 3 0
-26 -25 3 0
-27 -25 3 0
-28 -25 7 0
-29 -25 7 0
-30 -25 7 0
-31 -25 11 0
-32 -25 11 0
-33 -25 11 0
-1 -34 -2 0
-4 -34 -2 0
-5 -34 -2 0
-6 -35 -2 0
-8 -35 -2 0
-9 -35 -2 0
-10 -36 -2 0
-12 -36 -2 0
-13 -36 -2 0
-14 -34 -15 0
-16 -34 -15 0
-17 -34 -15 0
-18 -35 -15 0
-19 -35 -15 0
-20 -35 -15 0
-21 -36 -15 0
-22 -36 -15 0
-23 -36 -15 0
-24 -34 -25 0
-26 -34 -25 0
-27 -34 -25 0
-28 -35 -25 0
-29 -35 -25 0
-30 -35 -25 0
-31 -36 -25 0
-32 -36 -25 0
-33 -36 -25 0
-1 -34 -37 0
-4 -34 -37 0
-5 -34 -37 0
-6 -35 -38 0
-8 -35 -38 0
-9 -35 -38 0
-10 -36 -39 0
-12 -36 -39 0
-13 -36 -39 0
-14 -34 -37 0
-16 -34 -37 0
-17 -34 -37 0
-18 -35 -38 0
-19 -35 -38 0
-20 -35 -38 0
-21 -36 -39 0
-22 -36 -39 0
-23 -36 -39 0
-24 -34 -37 0
-26 -34 -37 0
-27 -34 -37 0
-28 -35 -38 0
-29 -35 -38 0
-30 -35 -38 0
-31 -36 -39 0
-32 -36 -39 0
-33 -36 -39 0
-1 -34 -40 0
-4 -34 -40 0
-5 -34 -40 0
-6 -35 -41 0
-8 -35 -41 0
-9 -35 -41 0
-10 -36 -42 0
-12 -36 -42 0
-13 -36 -42 0
-14 -34 -40 0
-16 -34 -40 0
-17 -34 -40 0
-18 -35 -41 0
-19 -35 -41 0
-20 -35 -41 0
-21 -36 -42 0
-22 -36 -42 0
-23 -36 -42 0
-24 -34 -40 0
-26 -34 -40 0
-27 -34 -40 0
-28 -35 -41 0
-29 -35 -41 0
-30 -35 -41 0
-31 -36 -42 0
-32 -36 -42 0
-33 -36 -42 0
-43 3 0
-44 3 0
-45 7 0
-46 7 0
-47 11 0
-48 11 0
-43 35 0
-44 36 0
-45 34 0
-46 36 0
-47 34 0
-48 35 0
-43 49 0
-44 49 0
-45 50 0
-46 50 0
-47 51 0
-48 51 0
-43 38 0
-44 39 0
-45 37 0
-46 39 0
-47 37 0
-48 38 0
-1 -2 -52 53 45 0
-4 -2 -54 53 45 0
-5 -2 -55 53 45 0
-1 -2 -56 57 47 0
-4 -2 -58 57 47 0
-5 -2 -59 57 47 0
-6 -2 -60 61 43 0
-8 -2 -62 61 43 0
-9 -2 -63 61 43 0
-6 -2 -56 64 48 0
-8 -2 -58 64 48 0
-9 -2 -59 64 48 0
-10 -2 -60 65 44 0
-12 -2 -62 65 44 0
-13 -2 -63 65 44 0
-10 -2 -52 66 46 0
-12 -2 -54 66 46 0
-13 -2 -55 66 46 0
-14 -15 -67 53 45 0
-16 -15 -68 53 45 0
-17 -15 -69 53 45 0
-14 -15 -70 57 47 0
-16 -15 -71 57 47 0
-17 -15 -72 57 47 0
-18 -15 -73 61 43 0
-19 -15 -74 61 43 0
-20 -15 -75 61 43 0
-18 -15 -70 64 48 0
-19 -15 -71 64 48 0
-20 -15 -72 64 48 0
-21 -15 -73 65 44 0
-22 -15 -74 65 44 0
-23 -15 -75 65 44 0
-21 -15 -67 66 46 0
-22 -15 -68 66 46 0
-23 -15 -69 66 46 0
-24 -25 -76 53 45 0
-26 -25 -77 53 45 0
-27 -25 -78 53 45 0
-24 -25 -79 57 47 0
-26 -25 -80 57 47 0
-27 -25 -81 57 47 0
-28 -25 -82 61 43 0
-29 -25 -83 61 43 0
-30 -25 -84 61 43 0
-28 -25 -79 64 48 0
-29 -25 -80 64 48 0
-30 -25 -81 64 48 0
-31 -25 -82 65 44 0
-32 -25 -83 65 44 0
-33 -25 -84 65 44 0
-31 -25 -76 66 46 0
-32 -25 -77 66 46 0
-33 -25 -78 66 46 0
-61 35 0
-65 36 0
-53 34 0
-66 36 0
-57 34 0
-64 35 0
-61 7 0
-65 11 0
-53 3 0
-66 11 0
-57 3 0
-64 7 0
-61 -40 0
-65 -40 0
-53 -41 0
-66 -41 0
-57 -42 0
-64 -42 0
-85 -86 -34 35 7 0
-85 -87 -34 36 11 0
-86 -85 -35 34 3 0
-86 -87 -35 36 11 0
-87 -85 -36 34 3 0
-87 -86 -36 35 7 0
-88 -89 -34 35 7 0
-88 -90 -34 36 11 0
-89 -88 -35 34 3 0
-89 -90 -35 36 11 0
-90 -88 -36 34 3 0
-90 -89 -36 35 7 0
-91 -92 -34 35 7 0
-91 -93 -34 36 11 0
-92 -91 -35 34 3 0
-92 -93 -35 36 11 0
-93 -91 -36 34 3 0
-93 -92 -36 35 7 0
-85 -86 -34 35 61 43 0
-85 -87 -34 36 65 44 0
-86 -85 -35 34 53 45 0
-86 -87 -35 36 66 46 0
-87 -85 -36 34 57 47 0
-87 -86 -36 35 64 48 0
-88 -89 -34 35 61 43 0
-88 -90 -34 36 65 44 0
-89 -88 -35 34 53 45 0
-89 -90 -35 36 66 46 0
-90 -88 -36 34 57 47 0
-90 -89 -36 35 64 48 0
-91 -92 -34 35 61 43 0
-91 -93 -34 36 65 44 0
-92 -91 -35 34 53 45 0
-92 -93 -35 36 66 46 0
-93 -91 -36 34 57 47 0
-93 -92 -36 35 64 48 0
-3 -35 0
-3 -36 0
-7 -34 0
-7 -36 0
-11 -34 0
-11 -35 0
-34 61 43 0
-34 65 44 0
-35 53 45 0
-35 66 46 0
-36 57 47 0
-36 64 48 0
-3 -49 1 0
-3 -49 4 0
-3 -49 5 0
-7 -50 6 0
-7 -50 8 0
-7 -50 9 0
-11 -51 10 0
-11 -51 12 0
-11 -51 13 0
-3 -49 14 0
-3 -49 16 0
-3 -49 17 0
-7 -50 18 0
-7 -50 19 0
-7 -50 20 0
-11 -51 21 0
-11 -51 22 0
-11 -51 23 0
-3 -49 24 0
-3 -49 26 0
-3 -49 27 0
-7 -50 28 0
-7 -50 29 0
-7 -50 30 0
-11 -51 31 0
-11 -51 32 0
-11 -51 33 0
-94 -40 0
-95 -41 0
-96 -42 0
-94 -97 0
-95 -98 0
-96 -99 0
-97 -37 0
-98 -38 0
-99 -39 0
-3 49 100 101 102 103 0
-7 50 104 105 106 107 0
-11 51 108 109 110 111 0
-103 -53 0
-103 -57 0
-107 -61 0
-107 -64 0
-111 -65 0
-111 -66 0
-3 -49 53 45 0
-3 -49 57 47 0
-7 -50 61 43 0
-7 -50 64 48 0
-11 -51 65 44 0
-11 -51 66 46 0
-34 40 60 0
-34 40 62 0
-34 40 63 0
-35 41 52 0
-35 41 54 0
-35 41 55 0
-36 42 56 0
-36 42 58 0
-36 42 59 0
-34 40 73 0
-34 40 74 0
-34 40 75 0
-35 41 67 0
-35 41 68 0
-35 41 69 0
-36 42 70 0
-36 42 71 0
-36 42 72 0
-34 40 82 0
-34 40 83 0
-34 40 84 0
-35 41 76 0
-35 41 77 0
-35 41 78 0
-36 42 79 0
-36 42 80 0
-36 42 81 0
-43 -103 0
-44 -103 0
-45 -107 0
-46 -107 0
-47 -111 0
-48 -111 0
-43 40 112 0
-44 40 112 0
-45 41 113 0
-46 41 113 0
-47 42 114 0
-48 42 114 0
-43 37 0
-44 37 0
-45 38 0
-46 38 0
-47 39 0
-48 39 0
-34 61 43 65 44 0
-35 53 45 66 46 0
-36 57 47 64 48 0
-3 103 53 57 0
-7 107 61 64 0
-11 111 65 66 0
-1 60 52 56 0
-6 60 52 56 0
-10 60 52 56 0
-4 62 54 58 0
-8 62 54 58 0
-12 62 54 58 0
-5 63 55 59 0
-9 63 55 59 0
-13 63 55 59 0
-14 73 67 70 0
-18 73 67 70 0
-21 73 67 70 0
-16 74 68 71 0
-19 74 68 71 0
-22 74 68 71 0
-17 75 69 72 0
-20 75 69 72 0
-23 75 69 72 0
-24 82 76 79 0
-28 82 76 79 0
-31 82 76 79 0
-26 83 77 80 0
-29 83 77 80 0
-32 83 77 80 0
-27 84 78 81 0
-30 84 78 81 0
-33 84 78 81 0
-60 1 6 10 0
-52 1 6 10 0
-56 1 6 10 0
-62 4 8 12 0
-54 4 8 12 0
-58 4 8 12 0
-63 5 9 13 0
-55 5 9 13 0
-59 5 9 13 0
-73 14 18 21 0
-67 14 18 21 0
-70 14 18 21 0
-74 16 19 22 0
-68 16 19 22 0
-71 16 19 22 0
-75 17 20 23 0
-69 17 20 23 0
-72 17 20 23 0
-82 24 28 31 0
-76 24 28 31 0
-79 24 28 31 0
-83 26 29 32 0
-77 26 29 32 0
-80 26 29 32 0
-84 27 30 33 0
-78 27 30 33 0
-81 27 30 33 0
-34 37 94 97 0
-35 38 95 98 0
-36 39 96 99 0
-37 -94 0
-38 -95 0
-39 -96 0
-102 -102 115 0
-102 -49 116 0
-49 -102 117 0
-49 -49 118 0
-106 -106 115 0
-106 -50 116 0
-50 -106 117 0
-50 -50 118 0
-110 -110 115 0
-110 -51 116 0
-51 -110 117 0
-51 -51 118 0
-97 85 88 91 0
-98 86 89 92 0
-99 87 90 93 0
-3 102 49 0
-7 106 50 0
-11 110 51 0
-61 -53 0
-65 -57 0
-53 -61 0
-66 -64 0
-57 -65 0
-64 -66 0
-43 -45 0
-44 -47 0
-45 -43 0
-46 -48 0
-47 -44 0
-48 -46 0
-61 119 -61 0
-61 120 -65 0
-65 121 -61 0
-65 122 -65 0
-53 123 -53 0
-53 124 -66 0
-66 125 -53 0
-66 122 -66 0
-57 123 -57 0
-57 126 -64 0
-64 127 -57 0
-64 119 -64 0
-43 119 -43 0
-43 120 -44 0
-44 121 -43 0
-44 122 -44 0
-45 123 -45 0
-45 124 -46 0
-46 125 -45 0
-46 122 -46 0
-47 123 -47 0
-47 126 -48 0
-48 127 -47 0
-48 119 -48 0
-43 -61 0
-43 -65 0
-44 -61 0
-44 -65 0
-45 -53 0
-45 -66 0
-46 -53 0
-46 -66 0
-47 -57 0
-47 -64 0
-48 -57 0
-48 -64 0
-37 -61 0
-37 -65 0
-38 -53 0
-38 -66 0
-39 -57 0
-39 -64 0
-94 -43 0
-94 -44 0
-95 -45 0
-95 -46 0
-96 -47 0
-96 -48 0
-97 -43 0
-97 -44 0
-98 -45 0
-98 -46 0
-99 -47 0
-99 -48 0
-94 -6 -60 128 61 0
-94 -8 -62 128 61 0
-94 -9 -63 128 61 0
-94 -18 -73 129 61 0
-94 -19 -74 129 61 0
-94 -20 -75 129 61 0
-94 -28 -82 130 61 0
-94 -29 -83 130 61 0
-94 -30 -84 130 61 0
-94 -10 -60 128 65 0
-94 -12 -62 128 65 0
-94 -13 -63 128 65 0
-94 -21 -73 129 65 0
-94 -22 -74 129 65 0
-94 -23 -75 129 65 0
-94 -31 -82 130 65 0
-94 -32 -83 130 65 0
-94 -33 -84 130 65 0
-95 -1 -52 128 53 0
-95 -4 -54 128 53 0
-95 -5 -55 128 53 0
-95 -14 -67 129 53 0
-95 -16 -68 129 53 0
-95 -17 -69 129 53 0
-95 -24 -76 130 53 0
-95 -26 -77 130 53 0
-95 -27 -78 130 53 0
-95 -10 -52 128 66 0
-95 -12 -54 128 66 0
-95 -13 -55 128 66 0
-95 -21 -67 129 66 0
-95 -22 -68 129 66 0
-95 -23 -69 129 66 0
-95 -31 -76 130 66 0
-95 -32 -77 130 66 0
-95 -33 -78 130 66 0
-96 -1 -56 128 57 0
-96 -4 -58 128 57 0
-96 -5 -59 128 57 0
-96 -14 -70 129 57 0
-96 -16 -71 129 57 0
-96 -17 -72 129 57 0
-96 -24 -79 130 57 0
-96 -26 -80 130 57 0
-96 -27 -81 130 57 0
-96 -6 -56 128 64 0
-96 -8 -58 128 64 0
-96 -9 -59 128 64 0
-96 -18 -70 129 64 0
-96 -19 -71 129 64 0
-96 -20 -72 129 64 0
-96 -28 -79 130 64 0
-96 -29 -80 130 64 0
-96 -30 -81 130 64 0
-94 -6 60 128 -61 0
-94 -8 62 128 -61 0
-94 -9 63 128 -61 0
-94 -18 73 129 -61 0
-94 -19 74 129 -61 0
-94 -20 75 129 -61 0
-94 -28 82 130 -61 0
-94 -29 83 130 -61 0
-94 -30 84 130 -61 0
-94 -10 60 128 -65 0
-94 -12 62 128 -65 0
-94 -13 63 128 -65 0
-94 -21 73 129 -65 0
-94 -22 74 129 -65 0
-94 -23 75 129 -65 0
-94 -31 82 130 -65 0
-94 -32 83 130 -65 0
-94 -33 84 130 -65 0
-95 -1 52 128 -53 0
-95 -4 54 128 -53 0
-95 -5 55 128 -53 0
-95 -14 67 129 -53 0
-95 -16 68 129 -53 0
-95 -17 69 129 -53 0
-95 -24 76 130 -53 0
-95 -26 77 130 -53 0
-95 -27 78 130 -53 0
-95 -10 52 128 -66 0
-95 -12 54 128 -66 0
-95 -13 55 128 -66 0
-95 -21 67 129 -66 0
-95 -22 68 129 -66 0
-95 -23 69 129 -66 0
-95 -31 76 130 -66 0
-95 -32 77 130 -66 0
-95 -33 78 130 -66 0
-96 -1 56 128 -57 0
-96 -4 58 128 -57 0
-96 -5 59 128 -57 0
-96 -14 70 129 -57 0
-96 -16 71 129 -57 0
-96 -17 72 129 -57 0
-96 -24 79 130 -57 0
-96 -26 80 130 -57 0
-96 -27 81 130 -57 0
-96 -6 56 128 -64 0
-96 -8 58 128 -64 0
-96 -9 59 128 -64 0
-96 -18 70 129 -64 0
-96 -19 71 129 -64 0
-96 -20 72 129 -64 0
-96 -28 79 130 -64 0
-96 -29 80 130 -64 0
-96 -30 81 130 -64 0
-94 6 -60 128 -61 0
-94 8 -62 128 -61 0
-94 9 -63 128 -61 0
-94 18 -73 129 -61 0
-94 19 -74 129 -61 0
-94 20 -75 129 -61 0
-94 28 -82 130 -61 0
-94 29 -83 130 -61 0
-94 30 -84 130 -61 0
-94 10 -60 128 -65 0
-94 12 -62 128 -65 0
-94 13 -63 128 -65 0
-94 21 -73 129 -65 0
-94 22 -74 129 -65 0
-94 23 -75 129 -65 0
-94 31 -82 130 -65 0
-94 32 -83 130 -65 0
-94 33 -84 130 -65 0
-95 1 -52 128 -53 0
-95 4 -54 128 -53 0
-95 5 -55 128 -53 0
-95 14 -67 129 -53 0
-95 16 -68 129 -53 0
-95 17 -69 129 -53 0
-95 24 -76 130 -53 0
-95 26 -77 130 -53 0
-95 27 -78 130 -53 0
-95 10 -52 128 -66 0
-95 12 -54 128 -66 0
-95 13 -55 128 -66 0
-95 21 -67 129 -66 0
-95 22 -68 129 -66 0
-95 23 -69 129 -66 0
-95 31 -76 130 -66 0
-95 32 -77 130 -66 0
-95 33 -78 130 -66 0
-96 1 -56 128 -57 0
-96 4 -58 128 -57 0
-96 5 -59 128 -57 0
-96 14 -70 129 -57 0
-96 16 -71 129 -57 0
-96 17 -72 129 -57 0
-96 24 -79 130 -57 0
-96 26 -80 130 -57 0
-96 27 -81 130 -57 0
-96 6 -56 128 -64 0
-96 8 -58 128 -64 0
-96 9 -59 128 -64 0
-96 18 -70 129 -64 0
-96 19 -71 129 -64 0
-96 20 -72 129 -64 0
-96 28 -79 130 -64 0
-96 29 -80 130 -64 0
-96 30 -81 130 -64 0
-97 -6 -60 128 61 0
-97 -8 -62 128 61 0
-97 -9 -63 128 61 0
-97 -18 -73 129 61 0
-97 -19 -74 129 61 0
-97 -20 -75 129 61 0
-97 -28 -82 130 61 0
-97 -29 -83 130 61 0
-97 -30 -84 130 61 0
-97 -10 -60 128 65 0
-97 -12 -62 128 65 0
-97 -13 -63 128 65 0
-97 -21 -73 129 65 0
-97 -22 -74 129 65 0
-97 -23 -75 129 65 0
-97 -31 -82 130 65 0
-97 -32 -83 130 65 0
-97 -33 -84 130 65 0
-98 -1 -52 128 53 0
-98 -4 -54 128 53 0
-98 -5 -55 128 53 0
-98 -14 -67 129 53 0
-98 -16 -68 129 53 0
-98 -17 -69 129 53 0
-98 -24 -76 130 53 0
-98 -26 -77 130 53 0
-98 -27 -78 130 53 0
-98 -10 -52 128 66 0
-98 -12 -54 128 66 0
-98 -13 -55 128 66 0
-98 -21 -67 129 66 0
-98 -22 -68 129 66 0
-98 -23 -69 129 66 0
-98 -31 -76 130 66 0
-98 -32 -77 130 66 0
-98 -33 -78 130 66 0
-99 -1 -56 128 57 0
-99 -4 -58 128 57 0
-99 -5 -59 128 57 0
-99 -14 -70 129 57 0
-99 -16 -71 129 57 0
-99 -17 -72 129 57 0
-99 -24 -79 130 57 0
-99 -26 -80 130 57 0
-99 -27 -81 130 57 0
-99 -6 -56 128 64 0
-99 -8 -58 128 64 0
-99 -9 -59 128 64 0
-99 -18 -70 129 64 0
-99 -19 -71 129 64 0
-99 -20 -72 129 64 0
-99 -28 -79 130 64 0
-99 -29 -80 130 64 0
-99 -30 -81 130 64 0
-97 -6 60 128 -61 0
-97 -8 62 128 -61 0
-97 -9 63 128 -61 0
-97 -18 73 129 -61 0
-97 -19 74 129 -61 0
-97 -20 75 129 -61 0
-97 -28 82 130 -61 0
-97 -29 83 130 -61 0
-97 -30 84 130 -61 0
-97 -10 60 128 -65 0
-97 -12 62 128 -65 0
-97 -13 63 128 -65 0
-97 -21 73 129 -65 0
-97 -22 74 129 -65 0
-97 -23 75 129 -65 0
-97 -31 82 130 -65 0
-97 -32 83 130 -65 0
-97 -33 84 130 -65 0
-98 -1 52 128 -53 0
-98 -4 54 128 -53 0
-98 -5 55 128 -53 0
-98 -14 67 129 -53 0
-98 -16 68 129 -53 0
-98 -17 69 129 -53 0
-98 -24 76 130 -53 0
-98 -26 77 130 -53 0
-98 -27 78 130 -53 0
-98 -10 52 128 -66 0
-98 -12 54 128 -66 0
-98 -13 55 128 -66 0
-98 -21 67 129 -66 0
-98 -22 68 129 -66 0
-98 -23 69 129 -66 0
-98 -31 76 130 -66 0
-98 -32 77 130 -66 0
-98 -33 78 130 -66 0
-99 -1 56 128 -57 0
-99 -4 58 128 -57 0
-99 -5 59 128 -57 0
-99 -14 70 129 -57 0
-99 -16 71 129 -57 0
-99 -17 72 129 -57 0
-99 -24 79 130 -57 0
-99 -26 80 130 -57 0
-99 -27 81 130 -57 0
-99 -6 56 128 -64 0
-99 -8 58 128 -64 0
-99 -9 59 128 -64 0
-99 -18 70 129 -64 0
-99 -19 71 129 -64 0
-99 -20 72 129 -64 0
-99 -28 79 130 -64 0
-99 -29 80 130 -64 0
-99 -30 81 130 -64 0
-97 6 -60 128 -61 0
-97 8 -62 128 -61 0
-97 9 -63 128 -61 0
-97 18 -73 129 -61 0
-97 19 -74 129 -61 0
-97 20 -75 129 -61 0
-97 28 -82 130 -61 0
-97 29 -83 130 -61 0
-97 30 -84 130 -61 0
-97 10 -60 128 -65 0
-97 12 -62 128 -65 0
-97 13 -63 128 -65 0
-97 21 -73 129 -65 0
-97 22 -74 129 -65 0
-97 23 -75 129 -65 0
-97 31 -82 130 -65 0
-97 32 -83 130 -65 0
-97 33 -84 130 -65 0
-98 1 -52 128 -53 0
-98 4 -54 128 -53 0
-98 5 -55 128 -53 0
-98 14 -67 129 -53 0
-98 16 -68 129 -53 0
-98 17 -69 129 -53 0
-98 24 -76 130 -53 0
-98 26 -77 130 -53 0
-98 27 -78 130 -53 0
-98 10 -52 128 -66 0
-98 12 -54 128 -66 0
-98 13 -55 128 -66 0
-98 21 -67 129 -66 0
-98 22 -68 129 -66 0
-98 23 -69 129 -66 0
-98 31 -76 130 -66 0
-98 32 -77 130 -66 0
-98 33 -78 130 -66 0
-99 1 -56 128 -57 0
-99 4 -58 128 -57 0
-99 5 -59 128 -57 0
-99 14 -70 129 -57 0
-99 16 -71 129 -57 0
-99 17 -72 129 -57 0
-99 24 -79 130 -57 0
-99 26 -80 130 -57 0
-99 27 -81 130 -57 0
-99 6 -56 128 -64 0
-99 8 -58 128 -64 0
-99 9 -59 128 -64 0
-99 18 -70 129 -64 0
-99 19 -71 129 -64 0
-99 20 -72 129 -64 0
-99 28 -79 130 -64 0
-99 29 -80 130 -64 0
-99 30 -81 130 -64 0
-85 -86 126 61 53 0
-85 -87 124 65 57 0
-86 -85 127 53 61 0
-86 -87 120 66 64 0
-87 -85 125 57 65 0
-87 -86 121 64 66 0
-88 -89 126 61 53 0
-88 -90 124 65 57 0
-89 -88 127 53 61 0
-89 -90 120 66 64 0
-90 -88 125 57 65 0
-90 -89 121 64 66 0
-91 -92 126 61 53 0
-91 -93 124 65 57 0
-92 -91 127 53 61 0
-92 -93 120 66 64 0
-93 -91 125 57 65 0
-93 -92 121 64 66 0
-85 -86 126 -3 -35 53 0
-85 -87 124 -3 -36 57 0
-86 -85 127 -7 -34 61 0
-86 -87 120 -7 -36 64 0
-87 -85 125 -11 -34 65 0
-87 -86 121 -11 -35 66 0
-88 -89 126 -3 -35 53 0
-88 -90 124 -3 -36 57 0
-89 -88 127 -7 -34 61 0
-89 -90 120 -7 -36 64 0
-90 -88 125 -11 -34 65 0
-90 -89 121 -11 -35 66 0
-91 -92 126 -3 -35 53 0
-91 -93 124 -3 -36 57 0
-92 -91 127 -7 -34 61 0
-92 -93 120 -7 -36 64 0
-93 -91 125 -11 -34 65 0
-93 -92 121 -11 -35 66 0
-61 -85 86 0
-61 -88 89 0
-61 -91 92 0
-65 -85 87 0
-65 -88 90 0
-65 -91 93 0
-53 -86 85 0
-53 -89 88 0
-53 -92 91 0
-66 -86 87 0
-66 -89 90 0
-66 -92 93 0
-57 -87 85 0
-57 -90 88 0
-57 -93 91 0
-64 -87 86 0
-64 -90 89 0
-64 -93 92 0
-1 3 0
-4 3 0
-5 3 0
-6 7 0
-8 7 0
-9 7 0
-10 11 0
-12 11 0
-13 11 0
-14 3 0
-16 3 0
-17 3 0
-18 7 0
-19 7 0
-20 7 0
-21 11 0
-22 11 0
-23 11 0
-24 3 0
-26 3 0
-27 3 0
-28 7 0
-29 7 0
-30 7 0
-31 11 0
-32 11 0
-33 11 0
-102 3 0
-49 3 0
-106 7 0
-50 7 0
-110 11 0
-51 11 0
-61 34 0
-65 34 0
-53 35 0
-66 35 0
-57 36 0
-64 36 0
-61 7 0
-65 11 0
-53 3 0
-66 11 0
-57 3 0
-64 7 0
-97 34 0
-94 34 0
-98 35 0
-95 35 0
-99 36 0
-96 36 0
-43 34 0
-44 34 0
-45 35 0
-46 35 0
-47 36 0
-48 36 0
-43 7 0
-44 11 0
-45 3 0
-46 11 0
-47 3 0
-48 7 0
-40 34 0
-112 34 0
-131 34 0
-41 35 0
-113 35 0
-132 35 0
-42 36 0
-114 36 0
-133 36 0
34 3 0
35 7 0
36 11 0
-34 -3 0
-35 -7 0
-36 -11 0
-97 134 -97 0
-97 135 -94 0
-94 136 -97 0
-94 137 -94 0
-98 134 -98 0
-98 135 -95 0
-95 136 -98 0
-95 137 -95 0
-99 134 -99 0
-99 135 -96 0
-96 136 -99 0
-96 137 -96 0
-40 138 -40 0
-40 139 -112 0
-40 140 -131 0
-112 141 -40 0
-112 142 -112 0
-112 143 -131 0
-131 144 -40 0
-131 145 -112 0
-131 146 -131 0
-41 138 -41 0
-41 139 -113 0
-41 140 -132 0
-113 141 -41 0
-113 142 -113 0
-113 143 -132 0
-132 144 -41 0
-132 145 -113 0
-132 146 -132 0
-42 138 -42 0
-42 139 -114 0
-42 140 -133 0
-114 141 -42 0
-114 142 -114 0
-114 143 -133 0
-133 144 -42 0
-133 145 -114 0
-133 146 -133 0
-1 147 -1 0
-4 147 -4 0
-5 147 -5 0
-6 147 -6 0
-8 147 -8 0
-9 147 -9 0
-10 147 -10 0
-12 147 -12 0
-13 147 -13 0
-1 148 -14 0
-4 148 -16 0
-5 148 -17 0
-6 148 -18 0
-8 148 -19 0
-9 148 -20 0
-10 148 -21 0
-12 148 -22 0
-13 148 -23 0
-1 149 -24 0
-4 149 -26 0
-5 149 -27 0
-6 149 -28 0
-8 149 -29 0
-9 149 -30 0
-10 149 -31 0
-12 149 -32 0
-13 149 -33 0
-14 150 -1 0
-16 150 -4 0
-17 150 -5 0
-18 150 -6 0
-19 150 -8 0
-20 150 -9 0
-21 150 -10 0
-22 150 -12 0
-23 150 -13 0
-14 151 -14 0
-16 151 -16 0
-17 151 -17 0
-18 151 -18 0
-19 151 -19 0
-20 151 -20 0
-21 151 -21 0
-22 151 -22 0
-23 151 -23 0
-14 152 -24 0
-16 152 -26 0
-17 152 -27 0
-18 152 -28 0
-19 152 -29 0
-20 152 -30 0
-21 152 -31 0
-22 152 -32 0
-23 152 -33 0
-24 153 -1 0
-26 153 -4 0
-27 153 -5 0
-28 153 -6 0
-29 153 -8 0
-30 153 -9 0
-31 153 -10 0
-32 153 -12 0
-33 153 -13 0
-24 154 -14 0
-26 154 -16 0
-27 154 -17 0
-28 154 -18 0
-29 154 -19 0
-30 154 -20 0
-31 154 -21 0
-32 154 -22 0
-33 154 -23 0
-24 155 -24 0
-26 155 -26 0
-27 155 -27 0
-28 155 -28 0
-29 155 -29 0
-30 155 -30 0
-31 155 -31 0
-32 155 -32 0
-33 155 -33 0
-1 123 -1 0
-4 123 -4 0
-5 123 -5 0
-1 126 -6 0
-4 126 -8 0
-5 126 -9 0
-1 124 -10 0
-4 124 -12 0
-5 124 -13 0
-6 127 -1 0
-8 127 -4 0
-9 127 -5 0
-6 119 -6 0
-8 119 -8 0
-9 119 -9 0
-6 120 -10 0
-8 120 -12 0
-9 120 -13 0
-10 125 -1 0
-12 125 -4 0
-13 125 -5 0
-10 121 -6 0
-12 121 -8 0
-13 121 -9 0
-10 122 -10 0
-12 122 -12 0
-13 122 -13 0
-14 123 -14 0
-16 123 -16 0
-17 123 -17 0
-14 126 -18 0
-16 126 -19 0
-17 126 -20 0
-14 124 -21 0
-16 124 -22 0
-17 124 -23 0
-18 127 -14 0
-19 127 -16 0
-20 127 -17 0
-18 119 -18 0
-19 119 -19 0
-20 119 -20 0
-18 120 -21 0
-19 120 -22 0
-20 120 -23 0
-21 125 -14 0
-22 125 -16 0
-23 125 -17 0
-21 121 -18 0
-22 121 -19 0
-23 121 -20 0
-21 122 -21 0
-22 122 -22 0
-23 122 -23 0
-24 123 -24 0
-26 123 -26 0
-27 123 -27 0
-24 126 -28 0
-26 126 -29 0
-27 126 -30 0
-24 124 -31 0
-26 124 -32 0
-27 124 -33 0
-28 127 -24 0
-29 127 -26 0
-30 127 -27 0
-28 119 -28 0
-29 119 -29 0
-30 119 -30 0
-28 120 -31 0
-29 120 -32 0
-30 120 -33 0
-31 125 -24 0
-32 125 -26 0
-33 125 -27 0
-31 121 -28 0
-32 121 -29 0
-33 121 -30 0
-31 122 -31 0
-32 122 -32 0
-33 122 -33 0
-60 147 -60 0
-62 147 -62 0
-63 147 -63 0
-52 147 -52 0
-54 147 -54 0
-55 147 -55 0
-56 147 -56 0
-58 147 -58 0
-59 147 -59 0
-60 148 -73 0
-62 148 -74 0
-63 148 -75 0
-52 148 -67 0
-54 148 -68 0
-55 148 -69 0
-56 148 -70 0
-58 148 -71 0
-59 148 -72 0
-60 149 -82 0
-62 149 -83 0
-63 149 -84 0
-52 149 -76 0
-54 149 -77 0
-55 149 -78 0
-56 149 -79 0
-58 149 -80 0
-59 149 -81 0
-73 150 -60 0
-74 150 -62 0
-75 150 -63 0
-67 150 -52 0
-68 150 -54 0
-69 150 -55 0
-70 150 -56 0
-71 150 -58 0
-72 150 -59 0
-73 151 -73 0
-74 151 -74 0
-75 151 -75 0
-67 151 -67 0
-68 151 -68 0
-69 151 -69 0
-70 151 -70 0
-71 151 -71 0
-72 151 -72 0
-73 152 -82 0
-74 152 -83 0
-75 152 -84 0
-67 152 -76 0
-68 152 -77 0
-69 152 -78 0
-70 152 -79 0
-71 152 -80 0
-72 152 -81 0
-82 153 -60 0
-83 153 -62 0
-84 153 -63 0
-76 153 -52 0
-77 153 -54 0
-78 153 -55 0
-79 153 -56 0
-80 153 -58 0
-81 153 -59 0
-82 154 -73 0
-83 154 -74 0
-84 154 -75 0
-76 154 -67 0
-77 154 -68 0
-78 154 -69 0
-79 154 -70 0
-80 154 -71 0
-81 154 -72 0
-82 155 -82 0
-83 155 -83 0
-84 155 -84 0
-76 155 -76 0
-77 155 -77 0
-78 155 -78 0
-79 155 -79 0
-80 155 -80 0
-81 155 -81 0
-60 123 -60 0
-62 123 -62 0
-63 123 -63 0
-60 126 -52 0
-62 126 -54 0
-63 126 -55 0
-60 124 -56 0
-62 124 -58 0
-63 124 -59 0
-52 127 -60 0
-54 127 -62 0
-55 127 -63 0
-52 119 -52 0
-54 119 -54 0
-55 119 -55 0
-52 120 -56 0
-54 120 -58 0
-55 120 -59 0
-56 125 -60 0
-58 125 -62 0
-59 125 -63 0
-56 121 -52 0
-58 121 -54 0
-59 121 -55 0
-56 122 -56 0
-58 122 -58 0
-59 122 -59 0
-73 123 -73 0
-74 123 -74 0
-75 123 -75 0
-73 126 -67 0
-74 126 -68 0
-75 126 -69 0
-73 124 -70 0
-74 124 -71 0
-75 124 -72 0
-67 127 -73 0
-68 127 -74 0
-69 127 -75 0
-67 119 -67 0
-68 119 -68 0
-69 119 -69 0
-67 120 -70 0
-68 120 -71 0
-69 120 -72 0
-70 125 -73 0
-71 125 -74 0
-72 125 -75 0
-70 121 -67 0
-71 121 -68 0
-72 121 -69 0
-70 122 -70 0
-71 122 -71 0
-72 122 -72 0
-82 123 -82 0
-83 123 -83 0
-84 123 -84 0
-82 126 -76 0
-83 126 -77 0
-84 126 -78 0
-82 124 -79 0
-83 124 -80 0
-84 124 -81 0
-76 127 -82 0
-77 127 -83 0
-78 127 -84 0
-76 119 -76 0
-77 119 -77 0
-78 119 -78 0
-76 120 -79 0
-77 120 -80 0
-78 120 -81 0
-79 125 -82 0
-80 125 -83 0
-81 125 -84 0
-79 121 -76 0
-80 121 -77 0
-81 121 -78 0
-79 122 -79 0
-80 122 -80 0
-81 122 -81 0
